g3 1 1 0	# problem unknown
 2 0 14 0 0 	# vars, constraints, objectives, ranges, eqns
 0 13 0 0 0 0	# nonlinear constrs, objs; ccons: lin, nonlin, nd, nzlb
 0 0	# network constraints: nonlinear, linear
 0 2 0 	# nonlinear vars in constraints, objectives, both
 0 0 0 1	# linear network variables; functions; arith, flags
 0 0 0 0 0 	# discrete variables: binary, integer, nonlinear (b,c,o)
 0 20 	# nonzeros in Jacobian, obj. gradient
 0 0	# max name lengths: constraints, variables
 0 0 0 0 0	# common exprs: b,c,o,c1,o1
O0 0
o0
o54
6
o43
v0
o2
n3.004486
o43
v1
o2
n1.160761
o43
o0
o16
o44
o2
n-2.2718538
v1
n1
o2
n2.645151
o43
o0
o16
o44
o2
n-11.914421
v1
n1
o2
n5.794987
o43
o0
o16
o44
o2
n-5.1415638
v1
n1
o2
n1.129475
o43
o0
o16
o44
o2
n-32.768217
v1
n1
n-8.258096
O1 0
o3
n1.0
v0
O2 0
o3
n-1.0
o5
v0
n2
O3 0
o0
o54
5
o3
n3.004486
v1
o3
n2.6370792887418
o0
o44
o2
n2.2718538
v1
n-1
o3
n31.515442622571
o0
o44
o2
n11.914421
v1
n-1
o3
n29.7952953806706
o0
o44
o2
n5.1415638
v1
n-1
o3
n37.010881896075
o0
o44
o2
n32.768217
v1
n-1
n6.353098
O4 0
o0
o3
n-3.004486
o5
v1
n2
o16
o54
4
o3
o2
n5.991058603029356
o44
o2
n-2.2718538
v1
o5
o0
o16
o44
o2
n-2.2718538
v1
n1
n2
o3
o2
n375.488251406655
o44
o2
n-11.914421
v1
o5
o0
o16
o44
o2
n-11.914421
v1
n1
n2
o3
o2
n153.19441213956318
o44
o2
n-5.1415638
v1
o5
o0
o16
o44
o2
n-5.1415638
v1
n1
n2
o3
o2
n1212.780609331957
o44
o2
n-32.768217
v1
o5
o0
o16
o44
o2
n-32.768217
v1
n1
n2
O5 0
o54
19
o2
o2
n1.046634
v0
o5
v1
n0.25
o2
o2
n-0.5451165
o5
v0
n2.0
v1
o2
o2
n-0.002448595
o5
v0
n5.0
o5
v1
n-0.25
o2
o2
n-0.04877002
v0
o5
v1
n-1.0
o2
o2
n0.03520158
v0
o5
v1
n2.0
o2
o2
n0.00162275
o5
v0
n3.0
o5
v1
n2.0
o2
o2
n2.377225e-05
o5
v0
n8.0
o5
v1
n0.75
o2
o2
n0.029149
o5
v0
n4.0
o5
v1
n0.25
o2
o2
o2
n0.003386203
o5
v0
n4.0
o5
v1
n18.0
o44
o16
o5
v0
n4
o2
o2
o2
n-0.004202444
o5
v0
n4.0
o5
v1
n26.0
o44
o16
o5
v0
n3
o2
o2
o2
n0.0004782025
o5
v0
n8.0
o5
v1
n-1.0
o44
o2
n-1
v0
o2
o2
o2
n-0.005504323
o5
v0
n3.0
o5
v1
n25.0
o44
o16
o5
v0
n4
o2
o2
o2
n-0.02418396
o5
v0
n5.0
o5
v1
n1.75
o44
o2
n-1
v0
o2
o2
o2
n0.4209034
v0
o5
v1
n4.0
o44
o16
o5
v0
n2
o2
o2
o2
n-0.4616537
v0
o5
v1
n5.0
o44
o16
o5
v0
n2
o2
o2
o2
n-1.200513
o5
v0
n3.0
v1
o44
o2
n-1
v0
o2
o2
o2
n-2.59155
v0
o5
v1
n1.5
o44
o2
n-1
v0
o2
o2
o2
n-1.400145
o5
v0
n2.0
v1
o44
o2
n-1
v0
o2
o2
o2
n0.8263017
o5
v0
n3.0
o5
v1
n0.5
o44
o2
n-1
v0
O6 0
o54
19
o2
n1.046634
o5
v1
n0.25
o2
o2
n-1.090233
v0
v1
o2
o2
n-0.012242975
o5
v0
n4.0
o5
v1
n-0.25
o2
n-0.04877002
o5
v1
n-1.0
o2
n0.03520158
o5
v1
n2.0
o2
o2
n0.00486825
o5
v0
n2.0
o5
v1
n2.0
o2
o2
n0.000190178
o5
v0
n7.0
o5
v1
n0.75
o2
o2
n0.116596
o5
v0
n3.0
o5
v1
n0.25
o2
o2
o2
o2
n0.003386203
o44
o16
o5
v0
n4
o5
v0
n3.0
o5
v1
n18.0
o0
o2
n-4
o5
v0
n4
n4.0
o2
o2
o2
o2
n-0.004202444
o44
o16
o5
v0
n3
o5
v0
n3.0
o5
v1
n26.0
o0
o2
n-3
o5
v0
n3
n4.0
o2
o2
o2
o2
n0.0004782025
o44
o2
n-1
v0
o5
v0
n7.0
o5
v1
n-1.0
o0
o2
n-1
v0
n8.0
o2
o2
o2
o2
n-0.005504323
o44
o16
o5
v0
n4
o5
v0
n2.0
o5
v1
n25.0
o0
o2
n-4
o5
v0
n4
n3.0
o2
o2
o2
o2
n-0.02418396
o44
o2
n-1
v0
o5
v0
n4.0
o5
v1
n1.75
o0
o2
n-1
v0
n5.0
o2
o2
o2
n0.4209034
o44
o16
o5
v0
n2
o5
v1
n4.0
o0
o2
n-2
o5
v0
n2
n1.0
o2
o2
o2
n-0.4616537
o44
o16
o5
v0
n2
o5
v1
n5.0
o0
o2
n-2
o5
v0
n2
n1.0
o2
o2
o2
o2
n-1.200513
o44
o2
n-1
v0
o5
v0
n2.0
v1
o0
o2
n-1
v0
n3.0
o2
o2
o2
n-2.59155
o44
o2
n-1
v0
o5
v1
n1.5
o0
o2
n-1
v0
n1.0
o2
o2
o2
o2
n-1.400145
o44
o2
n-1
v0
v0
v1
o0
o2
n-1
v0
n2.0
o2
o2
o2
o2
n0.8263017
o44
o2
n-1
v0
o5
v0
n2.0
o5
v1
n0.5
o0
o2
n-1
v0
n3.0
O7 0
o54
15
o2
o2
n-0.0489719
o5
v0
n3.0
o5
v1
n-0.25
o2
o2
n0.0097365
v0
o5
v1
n2.0
o2
o2
n0.001331246
o5
v0
n6.0
o5
v1
n0.75
o2
o2
n0.349788
o5
v0
n2.0
o5
v1
n0.25
o2
o2
o2
o2
n0.003386203
o44
o16
o5
v0
n4
o5
v0
n2.0
o5
v1
n18.0
o0
o2
o0
o2
n-4
o5
v0
n4
n4.0
o0
o2
n-4
o5
v0
n4
n3.0
o2
n-16
o5
v0
n4
o2
o2
o2
o2
n-0.004202444
o44
o16
o5
v0
n3
o5
v0
n2.0
o5
v1
n26.0
o0
o2
o0
o2
n-3
o5
v0
n3
n4.0
o0
o2
n-3
o5
v0
n3
n3.0
o2
n-9
o5
v0
n3
o2
o2
o2
o2
n0.0004782025
o44
o2
n-1
v0
o5
v0
n6.0
o5
v1
n-1.0
o0
o2
n-1
v0
o2
o0
o2
n-1
v0
n8.0
o0
o2
n-1
v0
n7.0
o2
o2
o2
o2
n-0.005504323
o44
o16
o5
v0
n4
v0
o5
v1
n25.0
o0
o2
o0
o2
n-4
o5
v0
n4
n3.0
o0
o2
n-4
o5
v0
n4
n2.0
o2
n-16
o5
v0
n4
o2
o2
o2
o2
n-0.02418396
o44
o2
n-1
v0
o5
v0
n3.0
o5
v1
n1.75
o0
o2
n-1
v0
o2
o0
o2
n-1
v0
n5.0
o0
o2
n-1
v0
n4.0
o2
o2
o2
o2
n0.4209034
o44
o16
o5
v0
n2
o5
v0
n-1.0
o5
v1
n4.0
o0
o2
o0
o2
n-2
o5
v0
n2
n1.0
o2
n-2
o5
v0
n2
o2
n-4
o5
v0
n2
o2
o2
o2
o2
n-0.4616537
o44
o16
o5
v0
n2
o5
v0
n-1.0
o5
v1
n5.0
o0
o2
o0
o2
n-2
o5
v0
n2
n1.0
o2
n-2
o5
v0
n2
o2
n-4
o5
v0
n2
o2
o2
o2
o2
n-1.200513
o44
o2
n-1
v0
v0
v1
o0
o2
n-1
v0
o2
o0
o2
n-1
v0
n3.0
o0
o2
n-1
v0
n2.0
o2
o2
o2
o2
n-2.59155
o44
o2
n-1
v0
o5
v0
n-1.0
o5
v1
n1.5
o0
o2
n-1
v0
o2
o0
o2
n-1
v0
n1.0
o2
n-1
v0
o2
o2
o2
n-1.400145
o44
o2
n-1
v0
v1
o0
o2
n-1
v0
o2
o0
o2
n-1
v0
n2.0
o0
o2
n-1
v0
n1.0
o2
o2
o2
o2
n0.8263017
o44
o2
n-1
v0
v0
o5
v1
n0.5
o0
o2
n-1
v0
o2
o0
o2
n-1
v0
n3.0
o0
o2
n-1
v0
n2.0
O8 0
o54
19
o2
o2
n0.2616585
v0
o5
v1
n-0.75
o2
n-0.5451165
o5
v0
n2.0
o2
o2
n0.00061214875
o5
v0
n5.0
o5
v1
n-1.25
o2
o2
n0.04877002
v0
o5
v1
n-2.0
o2
o2
n0.07040316
v0
v1
o2
o2
n0.0032455
o5
v0
n3.0
v1
o2
o2
n1.7829187499999998e-05
o5
v0
n8.0
o5
v1
n-0.25
o2
o2
n0.00728725
o5
v0
n4.0
o5
v1
n-0.75
o2
o2
o2
n0.060951654
o5
v0
n4.0
o5
v1
n17.0
o44
o16
o5
v0
n4
o2
o2
o2
n-0.10926354399999999
o5
v0
n4.0
o5
v1
n25.0
o44
o16
o5
v0
n3
o2
o2
o2
n-0.0004782025
o5
v0
n8.0
o5
v1
n-2.0
o44
o2
n-1
v0
o2
o2
o2
n-0.137608075
o5
v0
n3.0
o5
v1
n24.0
o44
o16
o5
v0
n4
o2
o2
o2
n-0.04232193
o5
v0
n5.0
o5
v1
n0.75
o44
o2
n-1
v0
o2
o2
o2
n1.6836136
v0
o5
v1
n3.0
o44
o16
o5
v0
n2
o2
o2
o2
n-2.3082685
v0
o5
v1
n4.0
o44
o16
o5
v0
n2
o2
o2
n-1.200513
o5
v0
n3.0
o44
o2
n-1
v0
o2
o2
o2
n-3.8873249999999997
v0
o5
v1
n0.5
o44
o2
n-1
v0
o2
o2
n-1.400145
o5
v0
n2.0
o44
o2
n-1
v0
o2
o2
o2
n0.41315085
o5
v0
n3.0
o5
v1
n-0.5
o44
o2
n-1
v0
O9 0
o54
15
o2
o2
n-0.196243875
v0
o5
v1
n-1.75
o2
o2
n-0.0007651859375
o5
v0
n5.0
o5
v1
n-2.25
o2
o2
n-0.09754004
v0
o5
v1
n-3.0
o2
n0.0032455
o5
v0
n3.0
o2
o2
n-4.4572968749999994e-06
o5
v0
n8.0
o5
v1
n-1.25
o2
o2
n-0.0054654375
o5
v0
n4.0
o5
v1
n-1.75
o2
o2
o2
n1.036178118
o5
v0
n4.0
o5
v1
n16.0
o44
o16
o5
v0
n4
o2
o2
o2
n-2.7315886
o5
v0
n4.0
o5
v1
n24.0
o44
o16
o5
v0
n3
o2
o2
o2
n0.000956405
o5
v0
n8.0
o5
v1
n-3.0
o44
o2
n-1
v0
o2
o2
o2
n-3.3025938
o5
v0
n3.0
o5
v1
n23.0
o44
o16
o5
v0
n4
o2
o2
o2
n-0.0317414475
o5
v0
n5.0
o5
v1
n-0.25
o44
o2
n-1
v0
o2
o2
o2
n5.0508408
v0
o5
v1
n2.0
o44
o16
o5
v0
n2
o2
o2
o2
n-9.233074
v0
o5
v1
n3.0
o44
o16
o5
v0
n2
o2
o2
o2
n-1.9436624999999998
v0
o5
v1
n-0.5
o44
o2
n-1
v0
o2
o2
o2
n-0.206575425
o5
v0
n3.0
o5
v1
n-1.5
o44
o2
n-1
v0
O10 0
o54
17
o2
n0.2616585
o5
v1
n-0.75
o2
o2
n0.00306074375
o5
v0
n4.0
o5
v1
n-1.25
o2
n0.04877002
o5
v1
n-2.0
o2
o2
n0.0097365
o5
v0
n2.0
v1
o2
o2
n0.00014263349999999998
o5
v0
n7.0
o5
v1
n-0.25
o2
o2
n0.029149
o5
v0
n3.0
o5
v1
n-0.75
o2
o2
o2
o2
n0.060951654
o5
v0
n3.0
o5
v1
n17.0
o0
o2
n-4
o5
v0
n4
n4.0
o44
o16
o5
v0
n4
o2
o2
o2
o2
n-0.10926354399999999
o5
v0
n3.0
o5
v1
n25.0
o0
o2
n-3
o5
v0
n3
n4.0
o44
o16
o5
v0
n3
o2
o2
o2
o2
n-0.0004782025
o5
v0
n7.0
o5
v1
n-2.0
o0
o2
n-1
v0
n8.0
o44
o2
n-1
v0
o2
o2
o2
o2
n-0.137608075
o5
v0
n2.0
o5
v1
n24.0
o0
o2
n-4
o5
v0
n4
n3.0
o44
o16
o5
v0
n4
o2
o2
o2
o2
n-0.04232193
o5
v0
n4.0
o5
v1
n0.75
o0
o2
n-1
v0
n5.0
o44
o2
n-1
v0
o2
o2
o2
n1.6836136
o5
v1
n3.0
o0
o2
n-2
o5
v0
n2
n1.0
o44
o16
o5
v0
n2
o2
o2
o2
n-2.3082685
o5
v1
n4.0
o0
o2
n-2
o5
v0
n2
n1.0
o44
o16
o5
v0
n2
o2
o2
o2
n-1.200513
o5
v0
n2.0
o0
o2
n-1
v0
n3.0
o44
o2
n-1
v0
o2
o2
o2
n-3.8873249999999997
o5
v1
n0.5
o0
o2
n-1
v0
n1.0
o44
o2
n-1
v0
o2
o2
o2
n-1.400145
v0
o0
o2
n-1
v0
n2.0
o44
o2
n-1
v0
o2
o2
o2
o2
n0.41315085
o5
v0
n2.0
o5
v1
n-0.5
o0
o2
n-1
v0
n3.0
o44
o2
n-1
v0
O11 0
o0
o54
4
o2
n1.024882075471698
o5
o0
o16
o3
n1
v1
n1
n0.25
o2
n3.0578537735849056
o5
o0
o16
o3
n1
v1
n1
n0.6666666666666666
o2
n-1.8337028301886793
o16
o3
n1
v1
o2
n0.865188679245283
o5
o0
o16
o3
n1
v1
n1
n1.6666666666666667
n-0.8337028301886793
O12 0
o44
o54
4
o2
n-1.969
o5
o0
o16
o3
n1
v1
n1
n0.3333333333333333
o2
n-2.0222
o5
o0
o16
o3
n1
v1
n1
n0.6666666666666666
o2
n-6.7409
o5
o0
o16
o3
n1
v1
n1
n1.3333333333333333
o2
n-27.479
o5
o0
o16
o3
n1
v1
n1
n3.6666666666666665
O13 0
n0.0
x2
0 1.0
1 1.0
r
b
3
3
k1
0
G0 2
0 0
1 6.353098
G1 1
0 0
G2 1
0 0
G3 1
1 0
G4 1
1 0
G5 2
0 0
1 0
G6 2
0 0
1 0
G7 2
0 0
1 -1.090233
G8 2
0 0
1 0
G9 2
0 0.07040316
1 0
G10 2
0 -1.090233
1 0.07040316
G11 1
1 0
G12 1
1 0
